\* Source Pyomo model name=unknown *\

max 
x49:
+4 x1
+4 x10
+4 x11
+6 x12
+7 x13
+8 x14
+6 x15
+8 x16
+10 x17
+7 x18
+7 x19
+7 x2
+7 x20
+10 x21
+9 x22
+8 x23
+10 x24
+4 x25
+4 x26
+4 x27
+5 x28
+4 x29
+3 x3
+3 x30
+4 x31
+3 x32
+4 x33
+4 x34
+5 x35
+3 x36
+2 x37
+3 x38
+2 x39
+5 x4
+2 x40
+3 x41
+1 x42
+2 x43
+2 x44
+2 x45
+2 x46
+3 x47
+2 x48
+5 x5
+5 x6
+7 x7
+5 x8
+5 x9

s.t.

c_u_x50_:
+4 x1
+5 x13
+2 x25
+4 x37
<= 103

c_u_x51_:
+3 x1
+7 x13
+5 x25
+1 x37
<= 98

c_u_x52_:
+5 x14
+4 x2
+2 x26
+4 x38
<= 75

c_u_x53_:
+7 x14
+3 x2
+5 x26
+1 x38
<= 42

c_u_x54_:
+5 x15
+2 x27
+4 x3
+4 x39
<= 80

c_u_x55_:
+7 x15
+5 x27
+3 x3
+1 x39
<= 88

c_u_x56_:
+5 x16
+2 x28
+4 x4
+4 x40
<= 93

c_u_x57_:
+7 x16
+5 x28
+3 x4
+1 x40
<= 95

c_u_x58_:
+5 x17
+2 x29
+4 x41
+4 x5
<= 114

c_u_x59_:
+7 x17
+5 x29
+1 x41
+3 x5
<= 193

c_u_x60_:
+5 x18
+2 x30
+4 x42
+4 x6
<= 108

c_u_x61_:
+7 x18
+5 x30
+1 x42
+3 x6
<= 98

c_u_x62_:
+5 x19
+2 x31
+4 x43
+4 x7
<= 50

c_u_x63_:
+7 x19
+5 x31
+1 x43
+3 x7
<= 116

c_u_x64_:
+5 x20
+2 x32
+4 x44
+4 x8
<= 99

c_u_x65_:
+7 x20
+5 x32
+1 x44
+3 x8
<= 88

c_u_x66_:
+5 x21
+2 x33
+4 x45
+4 x9
<= 94

c_u_x67_:
+7 x21
+5 x33
+1 x45
+3 x9
<= 92

c_u_x68_:
+4 x10
+5 x22
+2 x34
+4 x46
<= 103

c_u_x69_:
+3 x10
+7 x22
+5 x34
+1 x46
<= 88

c_u_x70_:
+4 x11
+5 x23
+2 x35
+4 x47
<= 102

c_u_x71_:
+3 x11
+7 x23
+5 x35
+1 x47
<= 118

c_u_x72_:
+4 x12
+5 x24
+2 x36
+4 x48
<= 92

c_u_x73_:
+3 x12
+7 x24
+5 x36
+1 x48
<= 73

c_u_x74_:
+4 x25
+4 x37
<= 52

c_u_x75_:
+6 x25
+1 x37
<= 60

c_u_x76_:
+3 x1
+5 x13
<= 46

c_u_x77_:
+4 x1
+3 x13
<= 52

c_u_x78_:
+4 x26
+4 x38
<= 52

c_u_x79_:
+6 x26
+1 x38
<= 60

c_u_x80_:
+5 x14
+3 x2
<= 46

c_u_x81_:
+3 x14
+4 x2
<= 52

c_u_x82_:
+4 x27
+4 x39
<= 52

c_u_x83_:
+6 x27
+1 x39
<= 60

c_u_x84_:
+5 x15
+3 x3
<= 46

c_u_x85_:
+3 x15
+4 x3
<= 52

c_u_x86_:
+4 x28
+4 x40
<= 52

c_u_x87_:
+6 x28
+1 x40
<= 60

c_u_x88_:
+5 x16
+3 x4
<= 46

c_u_x89_:
+3 x16
+4 x4
<= 52

c_u_x90_:
+4 x29
+4 x41
<= 52

c_u_x91_:
+6 x29
+1 x41
<= 60

c_u_x92_:
+5 x17
+3 x5
<= 46

c_u_x93_:
+3 x17
+4 x5
<= 52

c_u_x94_:
+4 x30
+4 x42
<= 52

c_u_x95_:
+6 x30
+1 x42
<= 60

c_u_x96_:
+5 x18
+3 x6
<= 46

c_u_x97_:
+3 x18
+4 x6
<= 52

c_u_x98_:
+4 x31
+4 x43
<= 52

c_u_x99_:
+6 x31
+1 x43
<= 60

c_u_x100_:
+5 x19
+3 x7
<= 46

c_u_x101_:
+3 x19
+4 x7
<= 52

c_u_x102_:
+4 x32
+4 x44
<= 52

c_u_x103_:
+6 x32
+1 x44
<= 60

c_u_x104_:
+5 x20
+3 x8
<= 46

c_u_x105_:
+3 x20
+4 x8
<= 52

c_u_x106_:
+4 x33
+4 x45
<= 52

c_u_x107_:
+6 x33
+1 x45
<= 60

c_u_x108_:
+5 x21
+3 x9
<= 46

c_u_x109_:
+3 x21
+4 x9
<= 52

c_u_x110_:
+4 x34
+4 x46
<= 52

c_u_x111_:
+6 x34
+1 x46
<= 60

c_u_x112_:
+3 x10
+5 x22
<= 46

c_u_x113_:
+4 x10
+3 x22
<= 52

c_u_x114_:
+4 x35
+4 x47
<= 52

c_u_x115_:
+6 x35
+1 x47
<= 60

c_u_x116_:
+3 x11
+5 x23
<= 46

c_u_x117_:
+4 x11
+3 x23
<= 52

c_u_x118_:
+4 x36
+4 x48
<= 52

c_u_x119_:
+6 x36
+1 x48
<= 60

c_u_x120_:
+3 x12
+5 x24
<= 46

c_u_x121_:
+4 x12
+3 x24
<= 52

c_e_ONE_VAR_CONSTANT: 
ONE_VAR_CONSTANT = 1.0

bounds
   0 <= x1 <= +inf
   0 <= x2 <= +inf
   0 <= x3 <= +inf
   0 <= x4 <= +inf
   0 <= x5 <= +inf
   0 <= x6 <= +inf
   0 <= x7 <= +inf
   0 <= x8 <= +inf
   0 <= x9 <= +inf
   0 <= x10 <= +inf
   0 <= x11 <= +inf
   0 <= x12 <= +inf
   0 <= x13 <= +inf
   0 <= x14 <= +inf
   0 <= x15 <= +inf
   0 <= x16 <= +inf
   0 <= x17 <= +inf
   0 <= x18 <= +inf
   0 <= x19 <= +inf
   0 <= x20 <= +inf
   0 <= x21 <= +inf
   0 <= x22 <= +inf
   0 <= x23 <= +inf
   0 <= x24 <= +inf
   0 <= x25 <= +inf
   0 <= x26 <= +inf
   0 <= x27 <= +inf
   0 <= x28 <= +inf
   0 <= x29 <= +inf
   0 <= x30 <= +inf
   0 <= x31 <= +inf
   0 <= x32 <= +inf
   0 <= x33 <= +inf
   0 <= x34 <= +inf
   0 <= x35 <= +inf
   0 <= x36 <= +inf
   0 <= x37 <= +inf
   0 <= x38 <= +inf
   0 <= x39 <= +inf
   0 <= x40 <= +inf
   0 <= x41 <= +inf
   0 <= x42 <= +inf
   0 <= x43 <= +inf
   0 <= x44 <= +inf
   0 <= x45 <= +inf
   0 <= x46 <= +inf
   0 <= x47 <= +inf
   0 <= x48 <= +inf
general
  x1
  x2
  x3
  x4
  x5
  x6
  x7
  x8
  x9
  x10
  x11
  x12
  x13
  x14
  x15
  x16
  x17
  x18
  x19
  x20
  x21
  x22
  x23
  x24
  x25
  x26
  x27
  x28
  x29
  x30
  x31
  x32
  x33
  x34
  x35
  x36
  x37
  x38
  x39
  x40
  x41
  x42
  x43
  x44
  x45
  x46
  x47
  x48
end
